*HEADING
Unit cube elastic verification: mm N MPa, E=1900 nu=.35, sigma_x=1 MPa
*NODE
1,0,0,0
2,1,0,0
3,1,1,0
4,0,1,0
5,0,0,1
6,1,0,1
7,1,1,1
8,0,1,1
*ELEMENT,TYPE=C3D8,ELSET=EALL
1,1,2,3,4,5,6,7,8
*NSET,NSET=LEFT
1,4,5,8
*NSET,NSET=RIGHT
2,3,6,7
*NSET,NSET=Y0
1,2,5,6
*NSET,NSET=Z0
1,2,3,4
*MATERIAL,NAME=DEBUG
*ELASTIC
1900,.35
*SOLID SECTION,ELSET=EALL,MATERIAL=DEBUG
*BOUNDARY
LEFT,1,1,0
Y0,2,2,0
Z0,3,3,0
*STEP
*STATIC,SOLVER=SPOOLES
*CLOAD
2,1,.25
3,1,.25
6,1,.25
7,1,.25
*NODE PRINT,NSET=RIGHT
U
*NODE PRINT,NSET=LEFT,TOTALS=YES
RF
*EL PRINT,ELSET=EALL
S
*END STEP
